nN = 5;
nR = 20;
nH = 1;

a = [[12, 24, 13, 11, 20, 12, 19, 17, 19, 22, 19, 22, 13, 12, 10, 12, 13, 13, 25, 16], [25, 24, 22, 10, 21, 17, 21, 17, 13, 15, 15, 15, 20, 20, 19, 14, 17, 14, 12, 20], [21, 11, 15, 16, 11, 14, 22, 22, 12, 17, 15, 15, 11, 18, 13, 19, 20, 25, 13, 13], [24, 15, 19, 17, 24, 20, 21, 18, 25, 15, 14, 23, 10, 11, 23, 22, 18, 19, 24, 22], [14, 18, 20, 14, 15, 25, 13, 19, 17, 10, 18, 13, 21, 17, 22, 18, 17, 10, 20, 12]];
c = [[[0, 0, 0, 0, 0, 0, 0, 0, 0, 0, 0, 0, 0, 0, 0, 0, 0, 0, 0, 0], [49, 39, 49, 49, 32, 37, 49, 43, 44, 38, 38, 50, 49, 38, 35, 36, 50, 36, 32, 44], [36, 34, 49, 49, 45, 34, 34, 41, 36, 40, 42, 44, 44, 47, 36, 49, 46, 30, 50, 30], [45, 43, 32, 34, 31, 47, 40, 48, 43, 33, 38, 34, 41, 50, 36, 33, 47, 43, 49, 45], [49, 36, 34, 47, 48, 50, 44, 43, 47, 48, 40, 31, 48, 43, 46, 39, 35, 34, 42, 43]], [[0, 0, 0, 0, 0, 0, 0, 0, 0, 0, 0, 0, 0, 0, 0, 0, 0, 0, 0, 0], [0, 0, 0, 0, 0, 0, 0, 0, 0, 0, 0, 0, 0, 0, 0, 0, 0, 0, 0, 0], [32, 33, 36, 34, 43, 43, 50, 43, 41, 43, 37, 39, 31, 45, 31, 40, 36, 38, 40, 32], [38, 33, 41, 34, 37, 30, 45, 33, 33, 50, 33, 34, 41, 34, 43, 31, 39, 33, 40, 45], [41, 31, 30, 33, 43, 34, 46, 48, 36, 49, 36, 40, 50, 45, 49, 44, 44, 30, 39, 41]], [[0, 0, 0, 0, 0, 0, 0, 0, 0, 0, 0, 0, 0, 0, 0, 0, 0, 0, 0, 0], [0, 0, 0, 0, 0, 0, 0, 0, 0, 0, 0, 0, 0, 0, 0, 0, 0, 0, 0, 0], [0, 0, 0, 0, 0, 0, 0, 0, 0, 0, 0, 0, 0, 0, 0, 0, 0, 0, 0, 0], [48, 39, 38, 42, 37, 48, 46, 38, 30, 42, 46, 49, 39, 40, 50, 38, 39, 40, 45, 43], [37, 31, 39, 42, 33, 48, 40, 30, 41, 35, 36, 35, 30, 48, 38, 42, 49, 50, 44, 47]], [[0, 0, 0, 0, 0, 0, 0, 0, 0, 0, 0, 0, 0, 0, 0, 0, 0, 0, 0, 0], [0, 0, 0, 0, 0, 0, 0, 0, 0, 0, 0, 0, 0, 0, 0, 0, 0, 0, 0, 0], [0, 0, 0, 0, 0, 0, 0, 0, 0, 0, 0, 0, 0, 0, 0, 0, 0, 0, 0, 0], [0, 0, 0, 0, 0, 0, 0, 0, 0, 0, 0, 0, 0, 0, 0, 0, 0, 0, 0, 0], [40, 46, 44, 42, 45, 32, 47, 43, 46, 38, 44, 39, 34, 31, 40, 42, 49, 34, 44, 40]], [[0, 0, 0, 0, 0, 0, 0, 0, 0, 0, 0, 0, 0, 0, 0, 0, 0, 0, 0, 0], [0, 0, 0, 0, 0, 0, 0, 0, 0, 0, 0, 0, 0, 0, 0, 0, 0, 0, 0, 0], [0, 0, 0, 0, 0, 0, 0, 0, 0, 0, 0, 0, 0, 0, 0, 0, 0, 0, 0, 0], [0, 0, 0, 0, 0, 0, 0, 0, 0, 0, 0, 0, 0, 0, 0, 0, 0, 0, 0, 0], [0, 0, 0, 0, 0, 0, 0, 0, 0, 0, 0, 0, 0, 0, 0, 0, 0, 0, 0, 0]]];

q = [[[13], [6], [12], [16], [23], [15], [20], [9], [6], [18], [21], [21], [13], [9], [23], [19], [16], [9], [25], [11]], [[16], [9], [9], [16], [11], [17], [21], [21], [23], [12], [6], [20], [20], [19], [12], [20], [21], [24], [13], [6]], [[21], [7], [6], [7], [6], [15], [18], [7], [24], [12], [24], [8], [14], [25], [21], [21], [22], [23], [16], [19]], [[10], [23], [16], [8], [11], [14], [5], [25], [23], [11], [25], [18], [11], [14], [17], [22], [15], [23], [7], [18]], [[16], [14], [17], [15], [8], [24], [16], [23], [6], [20], [7], [12], [19], [7], [19], [15], [16], [20], [25], [18]]];
Q = [[49], [51], [51], [52], [52]];
